00100000000100000000000000000000
00100000000100010000000000000101
00100000000100100000000000000001
00000000000000000101100000100000
00010010000100010000000000000110
10001110000010000000000000000000
00000010001010000100000000000100
10101110000010000000000000011111
00000010010100001000000000100000
00000001011010000101100000100000
00001000000000000000000000000100
00000000000000000000000000100000
00000000000000000000000000100000


